0
Node Left Objective IInf Best_Integer Best_Bound ItCnt Gap
0 0 0.0000 6 0.0000 77
0 0 0.0000 5 Cuts:11 89
0 0 0.0000 4 Cuts:6 104
0 0 0.0000 4 Cuts:7 112
0 2 0.0000 4 0.0000 112 0 0
CPXPARAM_MIP_Cuts_Gomory-FlowCovers-LiftProj:Gomory 0
CPXPARAM_MIP_Cuts_Gomory-FlowCovers-LiftProj:FlowCovers 3
CPXPARAM_MIP_Cuts_Gomory-FlowCovers-LiftProj:LiftProj 2
1
Node Left Objective IInf Best_Integer Best_Bound ItCnt Gap
0 0 0.0000 4 0.0000 57
0 0 0.0000 4 Fract:1 59
0 0 0.0000 4 Fract:1 62
0 2 0.0000 4 0.0000 62 0 0
CPXPARAM_MIP_Cuts_Gomory-FlowCovers-LiftProj:Gomory 0
CPXPARAM_MIP_Cuts_Gomory-FlowCovers-LiftProj:FlowCovers 0
CPXPARAM_MIP_Cuts_Gomory-FlowCovers-LiftProj:LiftProj 1
2
Node Left Objective IInf Best_Integer Best_Bound ItCnt Gap
0 0 0.0000 6 0.0000 57
0 0 0.0000 6 Cuts:8 67
0 0 0.0000 3 Cuts:6 75
0 0 0.0000 3 Cuts:4 80
0 2 0.0000 3 0.0000 80 0 0
CPXPARAM_MIP_Cuts_Gomory-FlowCovers-LiftProj:Gomory 0
CPXPARAM_MIP_Cuts_Gomory-FlowCovers-LiftProj:FlowCovers 2
CPXPARAM_MIP_Cuts_Gomory-FlowCovers-LiftProj:LiftProj 1
3
Node Left Objective IInf Best_Integer Best_Bound ItCnt Gap
0 0 0 0.0000 0.0000 19 0.00% 0
CPXPARAM_MIP_Cuts_Gomory-FlowCovers-LiftProj:Gomory 0
CPXPARAM_MIP_Cuts_Gomory-FlowCovers-LiftProj:FlowCovers 0
CPXPARAM_MIP_Cuts_Gomory-FlowCovers-LiftProj:LiftProj 0
4
Node Left Objective IInf Best_Integer Best_Bound ItCnt Gap
0 0 0.0000 7 0.0000 62
0 0 0.0000 7 Cuts:11 67
0 0 0.0000 6 Cuts:12 83
0 2 0.0000 6 0.0000 83 0 0
CPXPARAM_MIP_Cuts_Gomory-FlowCovers-LiftProj:Gomory 1
CPXPARAM_MIP_Cuts_Gomory-FlowCovers-LiftProj:FlowCovers 2
CPXPARAM_MIP_Cuts_Gomory-FlowCovers-LiftProj:LiftProj 0
5
Node Left Objective IInf Best_Integer Best_Bound ItCnt Gap
0 0 0.0000 3 0.0000 48
0 2 0.0000 3 0.0000 86 0 0
CPXPARAM_MIP_Cuts_Gomory-FlowCovers-LiftProj:Gomory 0
CPXPARAM_MIP_Cuts_Gomory-FlowCovers-LiftProj:FlowCovers 0
CPXPARAM_MIP_Cuts_Gomory-FlowCovers-LiftProj:LiftProj 0
6
Node Left Objective IInf Best_Integer Best_Bound ItCnt Gap
0 0 0.0000 5 0.0000 26
0 2 0.0000 3 0.0000 43 0 0
CPXPARAM_MIP_Cuts_Gomory-FlowCovers-LiftProj:Gomory 0
CPXPARAM_MIP_Cuts_Gomory-FlowCovers-LiftProj:FlowCovers 0
CPXPARAM_MIP_Cuts_Gomory-FlowCovers-LiftProj:LiftProj 0
7
Node Left Objective IInf Best_Integer Best_Bound ItCnt Gap
0 0 0 0.0000 0.0000 28 0.00% 0
CPXPARAM_MIP_Cuts_Gomory-FlowCovers-LiftProj:Gomory 0
CPXPARAM_MIP_Cuts_Gomory-FlowCovers-LiftProj:FlowCovers 0
CPXPARAM_MIP_Cuts_Gomory-FlowCovers-LiftProj:LiftProj 0
8
Node Left Objective IInf Best_Integer Best_Bound ItCnt Gap
0 0 0.0000 8 0.0000 65
0 0 0.0000 7 Fract:4 73
0 0 0.0000 5 Cuts:11 82
0 0 0.0000 4 Cuts:7 93
0 0 0.0000 4 Cuts:6 104
0 2 0.0000 4 0.0000 104 0 0
CPXPARAM_MIP_Cuts_Gomory-FlowCovers-LiftProj:Gomory 0
CPXPARAM_MIP_Cuts_Gomory-FlowCovers-LiftProj:FlowCovers 2
CPXPARAM_MIP_Cuts_Gomory-FlowCovers-LiftProj:LiftProj 2
9
Node Left Objective IInf Best_Integer Best_Bound ItCnt Gap
0 0 0.0000 4 0.0000 55
0 2 0.0000 4 0.0000 94 0 0
CPXPARAM_MIP_Cuts_Gomory-FlowCovers-LiftProj:Gomory 0
CPXPARAM_MIP_Cuts_Gomory-FlowCovers-LiftProj:FlowCovers 0
CPXPARAM_MIP_Cuts_Gomory-FlowCovers-LiftProj:LiftProj 0
10
Node Left Objective IInf Best_Integer Best_Bound ItCnt Gap
0 0 0.0000 5 0.0000 71
0 0 0.0000 4 Cuts:8 76
0 0 0.0000 4 Cuts:8 83
0 0 0.0000 5 Cuts:6 92
0 2 0.0000 5 0.0000 92 0 0
CPXPARAM_MIP_Cuts_Gomory-FlowCovers-LiftProj:Gomory 0
CPXPARAM_MIP_Cuts_Gomory-FlowCovers-LiftProj:FlowCovers 3
CPXPARAM_MIP_Cuts_Gomory-FlowCovers-LiftProj:LiftProj 1
11
Node Left Objective IInf Best_Integer Best_Bound ItCnt Gap
0 0 0.0000 2 0.0000 41
0 0 0.0000 2 Fract:1 58
0 2 0.0000 2 0.0000 58 0 0
CPXPARAM_MIP_Cuts_Gomory-FlowCovers-LiftProj:Gomory 0
CPXPARAM_MIP_Cuts_Gomory-FlowCovers-LiftProj:FlowCovers 0
CPXPARAM_MIP_Cuts_Gomory-FlowCovers-LiftProj:LiftProj 1
12
Node Left Objective IInf Best_Integer Best_Bound ItCnt Gap
0 0 0.0000 4 0.0000 55
0 0 0.0000 2 Fract:1 58
0 2 0.0000 2 0.0000 58 0 0
CPXPARAM_MIP_Cuts_Gomory-FlowCovers-LiftProj:Gomory 0
CPXPARAM_MIP_Cuts_Gomory-FlowCovers-LiftProj:FlowCovers 0
CPXPARAM_MIP_Cuts_Gomory-FlowCovers-LiftProj:LiftProj 1
13
Node Left Objective IInf Best_Integer Best_Bound ItCnt Gap
0 0 0.0000 6 0.0000 57
0 0 0.0000 7 Fract:1 79
0 2 0.0000 8 0.0000 79 0 0
CPXPARAM_MIP_Cuts_Gomory-FlowCovers-LiftProj:Gomory 0
CPXPARAM_MIP_Cuts_Gomory-FlowCovers-LiftProj:FlowCovers 0
CPXPARAM_MIP_Cuts_Gomory-FlowCovers-LiftProj:LiftProj 1
14
Node Left Objective IInf Best_Integer Best_Bound ItCnt Gap
0 0 0.0000 2 0.0000 30
0 0 0.0000 2 Cuts:2 74
0 2 0.0000 2 0.0000 74 0 0
CPXPARAM_MIP_Cuts_Gomory-FlowCovers-LiftProj:Gomory 0
CPXPARAM_MIP_Cuts_Gomory-FlowCovers-LiftProj:FlowCovers 1
CPXPARAM_MIP_Cuts_Gomory-FlowCovers-LiftProj:LiftProj 1
15
Node Left Objective IInf Best_Integer Best_Bound ItCnt Gap
0 0 0.0000 1 0.0000 35
0 2 0.0000 2 0.0000 75 0 0
CPXPARAM_MIP_Cuts_Gomory-FlowCovers-LiftProj:Gomory 0
CPXPARAM_MIP_Cuts_Gomory-FlowCovers-LiftProj:FlowCovers 0
CPXPARAM_MIP_Cuts_Gomory-FlowCovers-LiftProj:LiftProj 0
16
Node Left Objective IInf Best_Integer Best_Bound ItCnt Gap
0 0 0.0000 5 0.0000 63
0 0 0.0000 4 Fract:3 68
0 0 0.0000 4 Cuts:3 73
0 0 0.0000 4 Cuts:3 82
0 2 0.0000 4 0.0000 82 0 0
CPXPARAM_MIP_Cuts_Gomory-FlowCovers-LiftProj:Gomory 0
CPXPARAM_MIP_Cuts_Gomory-FlowCovers-LiftProj:FlowCovers 2
CPXPARAM_MIP_Cuts_Gomory-FlowCovers-LiftProj:LiftProj 2
17
Node Left Objective IInf Best_Integer Best_Bound ItCnt Gap
0 0 0.0000 4 0.0000 48
0 2 0.0000 4 0.0000 48 0 0
CPXPARAM_MIP_Cuts_Gomory-FlowCovers-LiftProj:Gomory 0
CPXPARAM_MIP_Cuts_Gomory-FlowCovers-LiftProj:FlowCovers 0
CPXPARAM_MIP_Cuts_Gomory-FlowCovers-LiftProj:LiftProj 0
18
Node Left Objective IInf Best_Integer Best_Bound ItCnt Gap
0 0 0.0000 4 0.0000 28
0 2 0.0000 4 0.0000 51 0 0
CPXPARAM_MIP_Cuts_Gomory-FlowCovers-LiftProj:Gomory 0
CPXPARAM_MIP_Cuts_Gomory-FlowCovers-LiftProj:FlowCovers 0
CPXPARAM_MIP_Cuts_Gomory-FlowCovers-LiftProj:LiftProj 0
19
Node Left Objective IInf Best_Integer Best_Bound ItCnt Gap
0 0 0 0.0000 0.0000 40 0.00% 0
CPXPARAM_MIP_Cuts_Gomory-FlowCovers-LiftProj:Gomory 0
CPXPARAM_MIP_Cuts_Gomory-FlowCovers-LiftProj:FlowCovers 0
CPXPARAM_MIP_Cuts_Gomory-FlowCovers-LiftProj:LiftProj 0
20
Node Left Objective IInf Best_Integer Best_Bound ItCnt Gap
0 0 0.0000 6 0.0000 54
0 0 0.0000 2 LiftProj:2 106
0 0 0 0.0000 Fract:2 107 0.00%
0 0 cutoff 0.0000 0.0000 107 0.00% 0
CPXPARAM_MIP_Cuts_Gomory-FlowCovers-LiftProj:Gomory 0
CPXPARAM_MIP_Cuts_Gomory-FlowCovers-LiftProj:FlowCovers 1
CPXPARAM_MIP_Cuts_Gomory-FlowCovers-LiftProj:LiftProj 2
21
Node Left Objective IInf Best_Integer Best_Bound ItCnt Gap
0 0 0.0000 3 0.0000 52
0 2 0.0000 4 0.0000 90 0 0
CPXPARAM_MIP_Cuts_Gomory-FlowCovers-LiftProj:Gomory 0
CPXPARAM_MIP_Cuts_Gomory-FlowCovers-LiftProj:FlowCovers 0
CPXPARAM_MIP_Cuts_Gomory-FlowCovers-LiftProj:LiftProj 0
22
Node Left Objective IInf Best_Integer Best_Bound ItCnt Gap
0 0 0.0000 3 0.0000 18
0 2 0.0000 2 0.0000 44 0 0
CPXPARAM_MIP_Cuts_Gomory-FlowCovers-LiftProj:Gomory 0
CPXPARAM_MIP_Cuts_Gomory-FlowCovers-LiftProj:FlowCovers 0
CPXPARAM_MIP_Cuts_Gomory-FlowCovers-LiftProj:LiftProj 0
23
Node Left Objective IInf Best_Integer Best_Bound ItCnt Gap
0 0 0.0000 4 0.0000 23
0 0 0.0000 4 Fract:2 44
0 2 0.0000 4 0.0000 44 0 0
CPXPARAM_MIP_Cuts_Gomory-FlowCovers-LiftProj:Gomory 0
CPXPARAM_MIP_Cuts_Gomory-FlowCovers-LiftProj:FlowCovers 0
CPXPARAM_MIP_Cuts_Gomory-FlowCovers-LiftProj:LiftProj 1
24
Node Left Objective IInf Best_Integer Best_Bound ItCnt Gap
0 0 0.0000 3 0.0000 53
0 0 0.0000 3 Cuts:3 66
0 0 0.0000 2 Fract:2 68
0 2 0.0000 2 0.0000 68 0 0
CPXPARAM_MIP_Cuts_Gomory-FlowCovers-LiftProj:Gomory 0
CPXPARAM_MIP_Cuts_Gomory-FlowCovers-LiftProj:FlowCovers 1
CPXPARAM_MIP_Cuts_Gomory-FlowCovers-LiftProj:LiftProj 2
25
Node Left Objective IInf Best_Integer Best_Bound ItCnt Gap
0 0 0.0000 6 0.0000 52
0 0 0.0000 7 Fract:2 56
0 0 0.0000 5 Cuts:3 59
0 2 0.0000 5 0.0000 59 0 0
CPXPARAM_MIP_Cuts_Gomory-FlowCovers-LiftProj:Gomory 0
CPXPARAM_MIP_Cuts_Gomory-FlowCovers-LiftProj:FlowCovers 1
CPXPARAM_MIP_Cuts_Gomory-FlowCovers-LiftProj:LiftProj 2
26
Node Left Objective IInf Best_Integer Best_Bound ItCnt Gap
0 0 0 0.0000 0.0000 14 0.00% 0
CPXPARAM_MIP_Cuts_Gomory-FlowCovers-LiftProj:Gomory 0
CPXPARAM_MIP_Cuts_Gomory-FlowCovers-LiftProj:FlowCovers 0
CPXPARAM_MIP_Cuts_Gomory-FlowCovers-LiftProj:LiftProj 0
27
Node Left Objective IInf Best_Integer Best_Bound ItCnt Gap
0 0 0 0.0000 0.0000 19 0.00% 0
CPXPARAM_MIP_Cuts_Gomory-FlowCovers-LiftProj:Gomory 0
CPXPARAM_MIP_Cuts_Gomory-FlowCovers-LiftProj:FlowCovers 0
CPXPARAM_MIP_Cuts_Gomory-FlowCovers-LiftProj:LiftProj 0
28
Node Left Objective IInf Best_Integer Best_Bound ItCnt Gap
0 0 0.0000 6 0.0000 62
0 0 0.0000 6 Cuts:5 69
0 0 0.0000 5 Cuts:5 76
0 2 0.0000 5 0.0000 76 0 0
CPXPARAM_MIP_Cuts_Gomory-FlowCovers-LiftProj:Gomory 0
CPXPARAM_MIP_Cuts_Gomory-FlowCovers-LiftProj:FlowCovers 1
CPXPARAM_MIP_Cuts_Gomory-FlowCovers-LiftProj:LiftProj 1
29
Node Left Objective IInf Best_Integer Best_Bound ItCnt Gap
0 0 0.0000 4 0.0000 48
0 2 0.0000 4 0.0000 99 0 0
CPXPARAM_MIP_Cuts_Gomory-FlowCovers-LiftProj:Gomory 0
CPXPARAM_MIP_Cuts_Gomory-FlowCovers-LiftProj:FlowCovers 0
CPXPARAM_MIP_Cuts_Gomory-FlowCovers-LiftProj:LiftProj 0
30
Node Left Objective IInf Best_Integer Best_Bound ItCnt Gap
0 0 0 0.0000 0.0000 20 0.00% 0
CPXPARAM_MIP_Cuts_Gomory-FlowCovers-LiftProj:Gomory 0
CPXPARAM_MIP_Cuts_Gomory-FlowCovers-LiftProj:FlowCovers 0
CPXPARAM_MIP_Cuts_Gomory-FlowCovers-LiftProj:LiftProj 0
31
Node Left Objective IInf Best_Integer Best_Bound ItCnt Gap
0 0 0 0.0000 0.0000 27 0.00% 0
CPXPARAM_MIP_Cuts_Gomory-FlowCovers-LiftProj:Gomory 0
CPXPARAM_MIP_Cuts_Gomory-FlowCovers-LiftProj:FlowCovers 0
CPXPARAM_MIP_Cuts_Gomory-FlowCovers-LiftProj:LiftProj 0
32
Node Left Objective IInf Best_Integer Best_Bound ItCnt Gap
0 0 0.0000 9 0.0000 59
0 0 0.0000 9 Cuts:6 69
0 0 0.0000 8 LiftProj:3 76
0 2 0.0000 8 0.0000 76 0 0
CPXPARAM_MIP_Cuts_Gomory-FlowCovers-LiftProj:Gomory 0
CPXPARAM_MIP_Cuts_Gomory-FlowCovers-LiftProj:FlowCovers 1
CPXPARAM_MIP_Cuts_Gomory-FlowCovers-LiftProj:LiftProj 1
33
Node Left Objective IInf Best_Integer Best_Bound ItCnt Gap
0 0 0.0000 7 0.0000 61
0 0 0.0000 7 Fract:2 64
0 2 0.0000 7 0.0000 64 0 0
CPXPARAM_MIP_Cuts_Gomory-FlowCovers-LiftProj:Gomory 0
CPXPARAM_MIP_Cuts_Gomory-FlowCovers-LiftProj:FlowCovers 0
CPXPARAM_MIP_Cuts_Gomory-FlowCovers-LiftProj:LiftProj 1
34
Node Left Objective IInf Best_Integer Best_Bound ItCnt Gap
0 0 0.0000 3 0.0000 40
0 2 0.0000 3 0.0000 72 0 0
CPXPARAM_MIP_Cuts_Gomory-FlowCovers-LiftProj:Gomory 0
CPXPARAM_MIP_Cuts_Gomory-FlowCovers-LiftProj:FlowCovers 0
CPXPARAM_MIP_Cuts_Gomory-FlowCovers-LiftProj:LiftProj 0
35
Node Left Objective IInf Best_Integer Best_Bound ItCnt Gap
0 0 0 0.0000 0.0000 28 0.00% 0
CPXPARAM_MIP_Cuts_Gomory-FlowCovers-LiftProj:Gomory 0
CPXPARAM_MIP_Cuts_Gomory-FlowCovers-LiftProj:FlowCovers 0
CPXPARAM_MIP_Cuts_Gomory-FlowCovers-LiftProj:LiftProj 0
36
Node Left Objective IInf Best_Integer Best_Bound ItCnt Gap
0 0 0.0000 8 0.0000 61
0 0 0.0000 8 Fract:6 71
0 0 0.0000 7 Cuts:7 81
0 2 0.0000 7 0.0000 81 0 0
CPXPARAM_MIP_Cuts_Gomory-FlowCovers-LiftProj:Gomory 0
CPXPARAM_MIP_Cuts_Gomory-FlowCovers-LiftProj:FlowCovers 1
CPXPARAM_MIP_Cuts_Gomory-FlowCovers-LiftProj:LiftProj 1
37
Node Left Objective IInf Best_Integer Best_Bound ItCnt Gap
0 0 0.0000 5 0.0000 63
0 2 0.0000 6 0.0000 63 0 0
CPXPARAM_MIP_Cuts_Gomory-FlowCovers-LiftProj:Gomory 0
CPXPARAM_MIP_Cuts_Gomory-FlowCovers-LiftProj:FlowCovers 0
CPXPARAM_MIP_Cuts_Gomory-FlowCovers-LiftProj:LiftProj 0
38
Node Left Objective IInf Best_Integer Best_Bound ItCnt Gap
0 0 0.0000 3 0.0000 39
0 2 0.0000 2 0.0000 56 0 0
CPXPARAM_MIP_Cuts_Gomory-FlowCovers-LiftProj:Gomory 0
CPXPARAM_MIP_Cuts_Gomory-FlowCovers-LiftProj:FlowCovers 0
CPXPARAM_MIP_Cuts_Gomory-FlowCovers-LiftProj:LiftProj 0
39
Node Left Objective IInf Best_Integer Best_Bound ItCnt Gap
0 0 0 0.0000 0.0000 28 0.00% 0
CPXPARAM_MIP_Cuts_Gomory-FlowCovers-LiftProj:Gomory 0
CPXPARAM_MIP_Cuts_Gomory-FlowCovers-LiftProj:FlowCovers 0
CPXPARAM_MIP_Cuts_Gomory-FlowCovers-LiftProj:LiftProj 0
